
220.0
290.0
220.0
220.0
220.0
220.0
220.0
220.0
220.0
350.0
220.0
240.0
220.0
270.0
220.0
220.0
220.0
220.0
220.0
220.0
220.0
220.0
220.0
220.0
220.0
220.0
220.0
220.0
220.0
220.0
280.0
220.0
250.0
350.0
220.0
220.0
220.0
220.0
220.0
220.0
220.0
220.0
230.0
340.0
220.0
220.0
220.0
220.0
220.0
220.0
340.0
220.0
220.0
220.0
350.0
220.0
220.0
220.0
220.0
220.0
220.0
220.0
220.0
220.0
220.0
220.0
220.0
220.0
220.0
220.0
220.0
220.0
220.0
220.0
230.0
240.0
240.0
230.0
220.0
230.0